% Instancia Pequeñas #5
% Generada el 2025-10-21 19:12:35

num_trabajadores = 11;
horizonte_dias = 5;
num_semanas = 1;

demanda = array2d(1..horizonte_dias, 1..3, [
  4, 4, 2,
  3, 3, 2,
  4, 3, 2,
  5, 2, 2,
  5, 3, 2
]);

puntajes = array3d(1..num_trabajadores, 1..horizonte_dias, 1..3, [
  0, 9, 9,
  3, 10, 8,
  2, 9, 8,
  0, 0, 1,
  5, 10, 0,
  0, 2, 8,
  4, 8, 5,
  1, 6, 7,
  5, 2, 7,
  7, 1, 7,
  8, 9, 1,
  6, 3, 5,
  8, 7, 4,
  2, 1, 9,
  5, 1, 9,
  5, 7, 6,
  2, 6, 4,
  5, 3, 1,
  9, 3, 9,
  10, 5, 1,
  4, 1, 5,
  8, 2, 5,
  8, 10, 9,
  10, 9, 2,
  8, 3, 1,
  6, 1, 5,
  2, 9, 0,
  10, 2, 4,
  6, 9, 10,
  0, 8, 10,
  0, 3, 3,
  5, 1, 1,
  6, 7, 10,
  2, 2, 6,
  8, 4, 10,
  7, 6, 2,
  6, 10, 4,
  6, 2, 6,
  0, 1, 0,
  3, 1, 6,
  5, 4, 10,
  9, 8, 5,
  0, 6, 3,
  4, 6, 7,
  4, 4, 8,
  0, 3, 0,
  9, 5, 10,
  6, 4, 0,
  9, 8, 7,
  0, 5, 4,
  10, 6, 8,
  0, 1, 2,
  10, 9, 9,
  3, 0, 5,
  4, 2, 10
]);
